p cnf 48 100
1 2 3 0
4 5 6 0
7 8 9 0
10 11 12 0
13 14 15 0
16 17 18 0
19 20 21 0
22 23 24 0
25 26 27 0
28 29 30 0
31 32 33 0
34 35 36 0
37 38 39 0
40 41 42 0
43 44 45 0
46 47 48 0
-1 -2 0
-1 -3 0
-2 -3 0
-4 -5 0
-4 -6 0
-5 -6 0
-7 -8 0
-7 -9 0
-8 -9 0
-10 -11 0
-10 -12 0
-11 -12 0
-13 -14 0
-13 -15 0
-14 -15 0
-16 -17 0
-16 -18 0
-17 -18 0
-19 -20 0
-19 -21 0
-20 -21 0
-22 -23 0
-22 -24 0
-23 -24 0
-25 -26 0
-25 -27 0
-26 -27 0
-28 -29 0
-28 -30 0
-29 -30 0
-31 -32 0
-31 -33 0
-32 -33 0
-34 -35 0
-34 -36 0
-35 -36 0
-37 -38 0
-37 -39 0
-38 -39 0
-40 -41 0
-40 -42 0
-41 -42 0
-43 -44 0
-43 -45 0
-44 -45 0
-46 -47 0
-46 -48 0
-47 -48 0
-1 -28 0
-2 -29 0
-3 -30 0
-4 -34 0
-5 -35 0
-6 -36 0
-7 -16 0
-8 -17 0
-9 -18 0
-7 -28 0
-8 -29 0
-9 -30 0
-10 -34 0
-11 -35 0
-12 -36 0
-13 -19 0
-14 -20 0
-15 -21 0
-16 -40 0
-17 -41 0
-18 -42 0
-28 -46 0
-29 -47 0
-30 -48 0
-31 -37 0
-32 -38 0
-33 -39 0
-31 -40 0
-32 -41 0
-33 -42 0
-31 -43 0
-32 -44 0
-33 -45 0
-40 -46 0
-41 -47 0
-42 -48 0
